14° run output:
{
    "Function": "kroA300.tsp",
    "Problem dimension": [
        184,
        238,
        267,
        239,
        14,
        66,
        44,
        80,
        231,
        122,
        197,
        296,
        190,
        54,
        119,
        53,
        82,
        264,
        5,
        143,
        63,
        142,
        298,
        275,
        92,
        162,
        13,
        99,
        259,
        179,
        56,
        9,
        169,
        155,
        130,
        2,
        265,
        228,
        132,
        293,
        28,
        86,
        207,
        291,
        168,
        40,
        3,
        202,
        10,
        241,
        95,
        220,
        26,
        158,
        45,
        81,
        62,
        286,
        199,
        170,
        24,
        136,
        288,
        191,
        245,
        103,
        196,
        283,
        203,
        248,
        243,
        193,
        77,
        282,
        137,
        206,
        292,
        262,
        244,
        178,
        121,
        287,
        152,
        258,
        237,
        213,
        18,
        105,
        23,
        186,
        290,
        221,
        289,
        246,
        174,
        166,
        163,
        214,
        151,
        138,
        177,
        108,
        69,
        101,
        150,
        247,
        157,
        12,
        114,
        198,
        6,
        148,
        200,
        98,
        250,
        222,
        153,
        260,
        297,
        274,
        229,
        21,
        156,
        74,
        154,
        234,
        32,
        73,
        94,
        139,
        225,
        117,
        205,
        36,
        48,
        161,
        126,
        70,
        38,
        87,
        227,
        57,
        89,
        236,
        133,
        255,
        175,
        112,
        188,
        68,
        160,
        280,
        118,
        17,
        269,
        72,
        189,
        273,
        164,
        96,
        173,
        79,
        218,
        140,
        33,
        106,
        19,
        235,
        278,
        232,
        100,
        171,
        252,
        115,
        187,
        43,
        194,
        216,
        88,
        271,
        90,
        75,
        20,
        107,
        279,
        39,
        0,
        135,
        109,
        91,
        125,
        51,
        65,
        144,
        270,
        180,
        211,
        272,
        49,
        181,
        257,
        34,
        124,
        192,
        7,
        71,
        249,
        276,
        102,
        217,
        27,
        104,
        201,
        85,
        55,
        208,
        22,
        176,
        268,
        50,
        230,
        60,
        47,
        31,
        116,
        277,
        219,
        254,
        210,
        294,
        129,
        195,
        37,
        285,
        35,
        242,
        146,
        284,
        15,
        212,
        120,
        256,
        58,
        215,
        97,
        113,
        182,
        134,
        41,
        84,
        83,
        251,
        165,
        263,
        78,
        226,
        46,
        185,
        127,
        266,
        42,
        233,
        224,
        159,
        30,
        111,
        76,
        261,
        204,
        25,
        295,
        183,
        61,
        223,
        167,
        16,
        147,
        299,
        281,
        93,
        67,
        110,
        52,
        11,
        59,
        1,
        149,
        172,
        64,
        123,
        8,
        131,
        253,
        145,
        128,
        4,
        209,
        240,
        141,
        29
    ],
    "Global Optimum": 0,
    "Algorithm": "Genetic algorithm",
    "Parameters": {
        "population": 30,
        "offspring": 30,
        "mutation probability": 0.0033333333333333335,
        "crossover probability": 0.9
    },
    "Fitness": 246300,
    "Solution": [
        184,
        238,
        267,
        239,
        14,
        66,
        44,
        80,
        231,
        122,
        197,
        296,
        190,
        54,
        119,
        53,
        82,
        264,
        5,
        143,
        63,
        142,
        298,
        275,
        92,
        162,
        13,
        99,
        259,
        179,
        56,
        9,
        169,
        155,
        130,
        2,
        265,
        228,
        132,
        293,
        28,
        86,
        207,
        291,
        168,
        40,
        3,
        202,
        10,
        241,
        95,
        220,
        26,
        158,
        45,
        81,
        62,
        286,
        199,
        170,
        24,
        136,
        288,
        191,
        245,
        103,
        196,
        283,
        203,
        248,
        243,
        193,
        77,
        282,
        137,
        206,
        292,
        262,
        244,
        178,
        121,
        287,
        152,
        258,
        237,
        213,
        18,
        105,
        23,
        186,
        290,
        221,
        289,
        246,
        174,
        166,
        163,
        214,
        151,
        138,
        177,
        108,
        69,
        101,
        150,
        247,
        157,
        12,
        114,
        198,
        6,
        148,
        200,
        98,
        250,
        222,
        153,
        260,
        297,
        274,
        229,
        21,
        156,
        74,
        154,
        234,
        32,
        73,
        94,
        139,
        225,
        117,
        205,
        36,
        48,
        161,
        126,
        70,
        38,
        87,
        227,
        57,
        89,
        236,
        133,
        255,
        175,
        112,
        188,
        68,
        160,
        280,
        118,
        17,
        269,
        72,
        189,
        273,
        164,
        96,
        173,
        79,
        218,
        140,
        33,
        106,
        19,
        235,
        278,
        232,
        100,
        171,
        252,
        115,
        187,
        43,
        194,
        216,
        88,
        271,
        90,
        75,
        20,
        107,
        279,
        39,
        0,
        135,
        109,
        91,
        125,
        51,
        65,
        144,
        270,
        180,
        211,
        272,
        49,
        181,
        257,
        34,
        124,
        192,
        7,
        71,
        249,
        276,
        102,
        217,
        27,
        104,
        201,
        85,
        55,
        208,
        22,
        176,
        268,
        50,
        230,
        60,
        47,
        31,
        116,
        277,
        219,
        254,
        210,
        294,
        129,
        195,
        37,
        285,
        35,
        242,
        146,
        284,
        15,
        212,
        120,
        256,
        58,
        215,
        97,
        113,
        182,
        134,
        41,
        84,
        83,
        251,
        165,
        263,
        78,
        226,
        46,
        185,
        127,
        266,
        42,
        233,
        224,
        159,
        30,
        111,
        76,
        261,
        204,
        25,
        295,
        183,
        61,
        223,
        167,
        16,
        147,
        299,
        281,
        93,
        67,
        110,
        52,
        11,
        59,
        1,
        149,
        172,
        64,
        123,
        8,
        131,
        253,
        145,
        128,
        4,
        209,
        240,
        141,
        29
    ],
    "Nb of functions evaluations": 400020,
    "Computational time in seconds": 746.4890375137329,
    "Stopping criterion in evaluations": 400000
}